; benchmark generated from python API
(set-info :status unknown)
(declare-datatypes ((RealState 0)) (((RMk1 (rval1 Real)) (RMk2 (rval2 Real)))))
 (assert
 (forall ((|v17:0| Real) )(forall ((|v16:1| Real) )(forall ((|v15:2| Real) )(forall ((|v14:3| Real) )(forall ((|v13:4| Real) )(forall ((|v12:5| Real) )(exists ((|v11:6_st| RealState) (val!10404 Real) )(exists ((|v10:7_st| RealState) (val!10405 Real) )(exists ((|v9:8_st| RealState) (val!10406 Real) )(exists ((|v8:9_st| RealState) (val!10407 Real) )(exists ((|v7:10_st| RealState) (val!10408 Real) )(exists ((|v6:11_st| RealState) (val!10409 Real) )(forall ((|v5:12| Real) )(forall ((|v4:13| Real) )(forall ((|v3:14| Real) )(forall ((|v2:15| Real) )(forall ((|v1:16| Real) )(forall ((|v0:17| Real) )(let ((?x8355 (- 12.0)))
 (let ((?x3753 (* 11.0 |v13:4|)))
 (let ((?x6156 (- 18.0)))
 (let ((?x4324 (* ?x6156 |v14:3|)))
 (let ((?x2540 (- 20.0)))
 (let ((?x5814 (* ?x2540 |v4:13|)))
 (let ((?x4654 (* 19.0 |v12:5|)))
 (let ((?x1246 (+ (+ (+ (* (- 15.0) (rval2 |v7:10_st|)) (* ?x2540 (rval2 |v9:8_st|))) ?x4654) ?x5814)))
 (let ((?x1880 (* 17.0 |v4:13|)))
 (let ((?x9566 (- 10.0)))
 (let ((?x8872 (* ?x9566 |v1:16|)))
 (let ((?x3669 (rval2 |v10:7_st|)))
 (let ((?x3237 (- 14.0)))
 (let ((?x8960 (* ?x3237 ?x3669)))
 (let ((?x9214 (rval2 |v8:9_st|)))
 (let ((?x5382 (* 20.0 ?x9214)))
 (let ((?x3318 (+ (+ (+ (+ (* (- 16.0) |v17:0|) (* 0.0 (rval2 |v11:6_st|))) ?x5382) ?x8960) ?x8872)))
 (let (($x3613 (or (<= (+ (+ ?x3318 (* (- 9.0) |v12:5|)) ?x1880) 12.0) (<= (+ (+ (+ ?x1246 ?x4324) (* 11.0 ?x3669)) ?x3753) ?x8355))))
 (let ((?x3775 (- 16.0)))
 (let ((?x746 (* 11.0 |v15:2|)))
 (let ((?x5187 (- 6.0)))
 (let ((?x5087 (* ?x5187 |v16:1|)))
 (let ((?x1687 (- 5.0)))
 (let ((?x1000 (* ?x1687 |v3:14|)))
 (let ((?x7925 (- 3.0)))
 (let ((?x1689 (* ?x7925 |v4:13|)))
 (let ((?x6161 (+ (+ (+ (* 0.0 |v15:2|) (* 6.0 |v5:12|)) (* (- 17.0) ?x9214)) ?x1689)))
 (let ((?x4030 (* ?x3775 ?x9214)))
 (let ((?x6059 (- 2.0)))
 (let ((?x318 (* ?x6059 |v0:17|)))
 (let ((?x7468 (- 11.0)))
 (let ((?x2064 (* ?x7468 |v17:0|)))
 (let ((?x1483 (+ (+ (+ (* ?x3237 (rval2 |v7:10_st|)) (* 18.0 (rval2 |v9:8_st|))) (* ?x2540 ?x9214)) ?x2064)))
 (let (($x8085 (and (<= (+ (+ (+ ?x1483 (* (- 8.0) (rval2 |v7:10_st|))) ?x318) ?x4030) ?x6156) (<= (+ (+ (+ ?x6161 ?x1000) ?x5087) ?x746) ?x3775))))
 (let ((?x3312 (- 13.0)))
 (let ((?x5432 (* ?x6059 |v5:12|)))
 (let ((?x2651 (* ?x8355 |v4:13|)))
 (let ((?x5679 (rval2 |v9:8_st|)))
 (let ((?x286 (- 19.0)))
 (let ((?x4795 (* ?x286 ?x5679)))
 (let ((?x728 (+ (+ (+ (* ?x7468 |v0:17|) (* 2.0 (rval2 |v7:10_st|))) (* 5.0 |v1:16|)) ?x4795)))
 (let ((?x9450 (* 0.0 |v15:2|)))
 (let ((?x7122 (- 17.0)))
 (let ((?x5563 (* ?x7122 ?x9214)))
 (let ((?x8398 (* ?x7122 |v0:17|)))
 (let ((?x4825 (+ (+ (+ (* 15.0 |v14:3|) (* ?x7122 |v3:14|)) (* (- 1.0) (rval2 |v7:10_st|))) ?x8398)))
 (let (($x8922 (or (<= (+ (+ (+ ?x4825 ?x5563) (* ?x7925 |v12:5|)) ?x9450) 5.0) (<= (+ (+ (+ ?x728 (* 13.0 (rval2 |v11:6_st|))) ?x2651) ?x5432) ?x3312))))
 (let ((?x6416 (* 17.0 |v0:17|)))
 (let ((?x6117 (* ?x5187 |v0:17|)))
 (let ((?x5667 (+ (+ (+ (+ (* 3.0 |v17:0|) (* 12.0 |v2:15|)) (rval2 |v6:11_st|)) ?x6117) ?x2651)))
 (let ((?x7410 (- 8.0)))
 (let ((?x4277 (* ?x7410 |v17:0|)))
 (let ((?x2582 (* 14.0 |v2:15|)))
 (let ((?x4592 (- 4.0)))
 (let ((?x7278 (* ?x4592 |v4:13|)))
 (let ((?x6492 (+ (+ (+ (+ (* ?x7122 |v2:15|) (* 12.0 |v17:0|)) (* 6.0 |v12:5|)) ?x7278) (* 0.0 |v16:1|))))
 (let (($x9149 (or (<= (+ (+ ?x6492 ?x2582) ?x4277) 14.0) (<= (+ (+ ?x5667 ?x6416) (* ?x7925 |v14:3|)) ?x8355))))
 (let ((?x5695 (* 6.0 |v16:1|)))
 (let ((?x2056 (* ?x286 ?x9214)))
 (let ((?x2127 (+ (+ (+ (* 9.0 (rval2 |v6:11_st|)) (* ?x4592 |v2:15|)) (* (- 7.0) |v15:2|)) (* ?x3312 |v17:0|))))
 (let (($x1141 (or (<= (+ (+ (+ ?x2127 ?x2056) ?x5695) |v5:12|) ?x3237) (or (and $x9149 $x8922) (or $x8085 $x3613)))))
 (let ((?x5237 (* ?x7410 |v14:3|)))
 (let ((?x2203 (* ?x8355 |v16:1|)))
 (let ((?x8177 (* ?x2540 |v0:17|)))
 (let ((?x4698 (+ (+ (+ (* ?x3775 |v12:5|) (* 18.0 (rval2 |v6:11_st|))) (* 7.0 |v4:13|)) ?x8177)))
 (let (($x4588 (and (<= (+ (+ (+ ?x4698 (* ?x8355 (rval2 |v7:10_st|))) ?x2203) ?x5237) ?x4592) $x1141)))
 (let ((?x9179 (- 9.0)))
 (let ((?x800 (* ?x9179 |v15:2|)))
 (let ((?x8523 (* 13.0 |v3:14|)))
 (let ((?x912 (+ (+ (+ (+ (* 20.0 ?x5679) (* (- 7.0) ?x5679)) |v4:13|) (* ?x3237 |v13:4|)) ?x8523)))
 (let ((?x4638 (+ (+ (+ (* ?x9566 |v5:12|) (* 0.0 |v2:15|)) (* 3.0 |v15:2|)) (* 17.0 |v13:4|))))
 (let ((?x5026 (+ (+ (+ ?x4638 (* 2.0 |v14:3|)) (* 19.0 (rval2 |v11:6_st|))) (* 3.0 ?x5679))))
 (let ((?x4856 (rval2 |v11:6_st|)))
 (let ((?x789 (* 8.0 ?x4856)))
 (let ((?x1396 (* 9.0 |v1:16|)))
 (let ((?x5113 (+ (+ (+ (* (- 15.0) |v0:17|) (* (- 15.0) |v14:3|)) (* ?x6059 |v16:1|)) ?x1396)))
 (let ((?x4314 (* ?x3775 |v17:0|)))
 (let ((?x5360 (* ?x2540 |v2:15|)))
 (let ((?x1839 (* ?x3312 |v2:15|)))
 (let ((?x9518 (+ (+ (+ (+ ?x3753 (* ?x1687 |v15:2|)) (* ?x2540 |v5:12|)) (* ?x3237 |v17:0|)) ?x1839)))
 (let (($x298 (and (<= (+ (+ ?x9518 ?x5360) ?x4314) ?x7468) (<= (+ (+ (+ ?x5113 (* 8.0 ?x5679)) (* 0.0 ?x3669)) ?x789) ?x3237))))
 (let ((?x5630 (* ?x6059 ?x4856)))
 (let ((?x7553 (* 13.0 |v14:3|)))
 (let ((?x7367 (+ (+ (+ (* ?x7410 |v13:4|) (* ?x9566 (rval2 |v7:10_st|))) (* 4.0 |v1:16|)) ?x7553)))
 (let ((?x7546 (* 8.0 |v13:4|)))
 (let ((?x7512 (* ?x2540 |v1:16|)))
 (let ((?x1386 (* ?x2540 |v14:3|)))
 (let ((?x8236 (+ (+ (+ (+ (* 3.0 |v2:15|) (* 15.0 ?x9214)) (* ?x9179 |v5:12|)) ?x1386) ?x7512)))
 (let (($x3479 (and (<= (+ (+ ?x8236 ?x7546) (* (- 15.0) (rval2 |v6:11_st|))) 13.0) (<= (+ (+ (+ ?x7367 ?x5630) (* 18.0 |v16:1|)) |v15:2|) ?x9179))))
 (let ((?x9355 (* 4.0 |v16:1|)))
 (let ((?x6665 (+ (+ (+ (+ (* 13.0 |v12:5|) (* 4.0 ?x3669)) ?x2064) (* 8.0 |v17:0|)) ?x9355)))
 (let ((?x5654 (* ?x7410 |v13:4|)))
 (let ((?x4061 (* 6.0 |v1:16|)))
 (let ((?x8179 (+ (+ (+ (+ ?x6117 (* 6.0 |v3:14|)) (* 12.0 ?x5679)) (* ?x3775 ?x4856)) ?x4061)))
 (let (($x9147 (or (<= (+ (+ ?x8179 (* ?x5187 (rval2 |v7:10_st|))) ?x5654) ?x2540) (<= (+ (+ ?x6665 ?x5237) |v14:3|) 0.0))))
 (let (($x7556 (or (or $x9147 $x3479) (and $x298 (or (<= ?x5026 ?x7410) (<= (+ (+ ?x912 ?x5087) ?x800) ?x7468))))))
 (let ((?x630 (* 19.0 |v2:15|)))
 (let ((?x2054 (* 18.0 |v17:0|)))
 (let ((?x2094 (+ (+ (+ (+ (* 10.0 |v12:5|) (* ?x8355 |v5:12|)) (* ?x6156 ?x4856)) ?x2054) (* ?x3312 ?x4856))))
 (let ((?x4507 (* ?x3775 |v1:16|)))
 (let ((?x3955 (+ (+ (+ (* 8.0 (rval2 |v7:10_st|)) (* 3.0 |v1:16|)) (* ?x7925 |v0:17|)) ?x2582)))
 (let (($x1156 (or (<= (+ (+ (+ ?x3955 ?x5237) ?x4507) (* 12.0 ?x9214)) 4.0) (<= (+ (+ ?x2094 (* ?x7410 ?x3669)) ?x630) 13.0))))
 (let ((?x4231 (* ?x3237 |v12:5|)))
 (let ((?x5537 (- 1.0)))
 (let ((?x3009 (* ?x5537 |v2:15|)))
 (let ((?x8412 (+ (+ (+ (* ?x1687 (rval2 |v7:10_st|)) (* ?x1687 |v1:16|)) (* 15.0 |v16:1|)) ?x3009)))
 (let ((?x3193 (* ?x6059 |v3:14|)))
 (let ((?x7347 (+ (+ (+ (* 11.0 (rval2 |v7:10_st|)) (* 5.0 ?x9214)) (* ?x5537 |v15:2|)) (* ?x3237 |v15:2|))))
 (let (($x1305 (<= (+ (+ (+ ?x7347 (* ?x8355 (rval2 |v6:11_st|))) (* ?x286 |v12:5|)) ?x3193) ?x8355)))
 (let (($x2578 (or $x1305 (<= (+ (+ (+ ?x8412 (* 2.0 |v13:4|)) ?x4231) (* ?x4592 ?x3669)) 15.0))))
 (let ((?x7687 (* 14.0 ?x5679)))
 (let ((?x4785 (* 5.0 ?x5679)))
 (let ((?x7816 (+ (+ (+ (+ (* 0.0 |v1:16|) (* 10.0 ?x5679)) (* ?x2540 |v12:5|)) ?x4785) (* 15.0 ?x5679))))
 (let ((?x439 (rval2 |v6:11_st|)))
 (let ((?x7722 (* 5.0 ?x439)))
 (let ((?x3953 (* ?x4592 |v16:1|)))
 (let ((?x8781 (* 14.0 ?x3669)))
 (let ((?x5482 (+ (+ (+ (* 20.0 |v4:13|) (* ?x7122 (rval2 |v7:10_st|))) (* 0.0 |v4:13|)) (* ?x3775 (rval2 |v7:10_st|)))))
 (let (($x5955 (and (<= (+ (+ (+ ?x5482 ?x8781) ?x3953) ?x7722) 11.0) (<= (+ (+ ?x7816 ?x7546) ?x7687) ?x1687))))
 (let ((?x4161 (* 19.0 ?x439)))
 (let ((?x3033 (* 7.0 ?x9214)))
 (let ((?x5520 (+ (+ (+ (* 2.0 |v1:16|) |v14:3|) (* ?x286 (rval2 |v7:10_st|))) (* ?x7122 ?x439))))
 (let ((?x1457 (* 15.0 |v3:14|)))
 (let ((?x3220 (+ (+ (+ (+ ?x789 (* 12.0 |v5:12|)) (* 19.0 |v0:17|)) (* ?x8355 |v14:3|)) ?x1457)))
 (let (($x4519 (or (<= (+ (+ ?x3220 ?x1000) (* ?x9566 ?x4856)) ?x5187) (<= (+ (+ (+ ?x5520 ?x3033) ?x4161) (* ?x5537 |v13:4|)) ?x2540))))
 (let ((?x2701 (rval2 |v7:10_st|)))
 (let ((?x9396 (* ?x1687 ?x2701)))
 (let ((?x6160 (+ (+ (+ (+ (+ (* ?x7468 ?x4856) ?x5695) ?x4314) ?x1000) (* 6.0 |v13:4|)) ?x9396)))
 (let ((?x4225 (* 15.0 |v4:13|)))
 (let ((?x5884 (* ?x7410 |v1:16|)))
 (let ((?x9329 (* 14.0 ?x4856)))
 (let ((?x574 (* 19.0 |v3:14|)))
 (let ((?x6048 (+ (+ (+ (+ (* 2.0 |v2:15|) (* 12.0 |v15:2|)) (* ?x3312 |v16:1|)) ?x574) ?x9329)))
 (let ((?x256 (* ?x3775 |v2:15|)))
 (let ((?x5600 (* 7.0 |v3:14|)))
 (let ((?x2814 (+ (+ (+ (* ?x7410 |v5:12|) (* 15.0 |v5:12|)) (* 20.0 |v13:4|)) (* ?x7122 ?x3669))))
 (let ((?x3385 (* ?x5187 |v4:13|)))
 (let ((?x6459 (+ (+ (+ (+ (* 20.0 |v15:2|) (* 2.0 ?x2701)) ?x4324) (* 8.0 ?x3669)) ?x5600)))
 (let (($x8583 (and (<= (+ (+ ?x6459 ?x3385) ?x7546) ?x7122) (<= (+ (+ (+ ?x2814 ?x5600) ?x256) (* 13.0 |v13:4|)) ?x2540))))
 (let (($x4228 (and $x8583 (and (<= (+ (+ ?x6048 ?x5884) ?x4225) ?x1687) (<= (+ ?x6160 ?x6117) 15.0)))))
 (let ((?x9016 (* ?x8355 |v1:16|)))
 (let ((?x6822 (* ?x1687 ?x5679)))
 (let ((?x8046 (* ?x3237 ?x9214)))
 (let ((?x802 (+ (+ (+ (* 15.0 ?x4856) (* 17.0 |v14:3|)) (* 0.0 |v0:17|)) (* ?x9179 ?x9214))))
 (let ((?x6586 (* 10.0 ?x4856)))
 (let ((?x4784 (+ (+ (+ (+ (* ?x5187 ?x9214) (* 7.0 ?x439)) (* 10.0 ?x3669)) ?x5237) ?x6586)))
 (let (($x6787 (and (<= (+ (+ ?x4784 (* ?x5187 |v15:2|)) ?x7687) ?x3237) (<= (+ (+ (+ ?x802 ?x8046) ?x6822) ?x9016) 10.0))))
 (let ((?x2888 (* ?x7122 |v5:12|)))
 (let ((?x5460 (* 11.0 |v16:1|)))
 (let ((?x3448 (+ (+ (+ (+ (* 19.0 ?x5679) (* (- 15.0) |v15:2|)) (* ?x5537 |v3:14|)) ?x6416) (* ?x5537 |v12:5|))))
 (let ((?x6513 (* ?x7925 |v5:12|)))
 (let ((?x9088 (* 2.0 |v3:14|)))
 (let ((?x4401 (* 4.0 |v12:5|)))
 (let ((?x7708 (+ (+ (+ (+ (* ?x4592 |v17:0|) (* 12.0 |v1:16|)) (* ?x9179 ?x3669)) ?x4401) (* 10.0 |v16:1|))))
 (let (($x3487 (and (<= (+ (+ ?x7708 ?x9088) ?x6513) 1.0) (<= (+ (+ ?x3448 ?x5460) ?x2888) ?x1687))))
 (let ((?x7488 (* ?x9179 |v16:1|)))
 (let ((?x4986 (* ?x3775 ?x4856)))
 (let ((?x6190 (* 16.0 |v1:16|)))
 (let ((?x1984 (+ (+ (+ (+ (* 12.0 |v16:1|) (* ?x8355 |v13:4|)) (* 13.0 |v12:5|)) ?x6190) ?x4986)))
 (let ((?x1186 (* 15.0 |v5:12|)))
 (let ((?x8127 (* ?x9566 |v2:15|)))
 (let ((?x8077 (+ (+ (+ (+ (* 6.0 ?x5679) (* ?x3312 |v16:1|)) (* ?x3237 |v17:0|)) ?x5679) ?x8127)))
 (let (($x5872 (or (<= (+ (+ ?x8077 ?x1186) (* 19.0 |v17:0|)) ?x3237) (<= (+ (+ ?x1984 ?x7488) (* 5.0 |v16:1|)) ?x9566))))
 (let ((?x7988 (* 12.0 |v3:14|)))
 (let ((?x3025 (* ?x8355 |v14:3|)))
 (let ((?x5983 (+ (+ (+ (* 4.0 ?x9214) (* ?x3237 |v5:12|)) (* 3.0 |v1:16|)) (* (- 7.0) |v17:0|))))
 (let ((?x7742 (* ?x9179 |v0:17|)))
 (let ((?x3403 (* ?x4592 |v2:15|)))
 (let ((?x3491 (+ (+ (+ (+ (+ (* 7.0 ?x5679) ?x1396) (* 2.0 ?x3669)) ?x4986) ?x3403) ?x7742)))
 (let (($x6871 (and (<= (+ ?x3491 (* ?x7925 ?x2701)) ?x9179) (<= (+ (+ (+ ?x5983 ?x3025) ?x800) ?x7988) 10.0))))
 (let ((?x116 (* ?x6059 |v1:16|)))
 (let ((?x2501 (* 2.0 ?x9214)))
 (let ((?x1134 (* ?x6059 |v4:13|)))
 (let ((?x296 (+ (+ (+ (+ (* 11.0 |v17:0|) (* 18.0 ?x5679)) (* 4.0 |v13:4|)) ?x1134) ?x2501)))
 (let ((?x6121 (* 5.0 |v3:14|)))
 (let ((?x8294 (* 7.0 |v17:0|)))
 (let ((?x2699 (* 19.0 ?x2701)))
 (let ((?x6119 (+ (+ (+ (+ (* ?x7410 ?x5679) (* 10.0 |v14:3|)) (* ?x7410 |v16:1|)) ?x2699) ?x8294)))
 (let (($x8992 (and (<= (+ (+ ?x6119 ?x6121) (* 16.0 |v16:1|)) ?x3237) (<= (+ (+ ?x296 (* ?x7925 ?x3669)) ?x116) 19.0))))
 (let ((?x1823 (* 17.0 |v2:15|)))
 (let ((?x8587 (* ?x3237 |v1:16|)))
 (let ((?x2920 (* 4.0 |v2:15|)))
 (let ((?x4724 (+ (+ (+ (+ (+ ?x1689 ?x8523) (* ?x6156 |v13:4|)) (* 13.0 |v2:15|)) ?x2920) ?x8587)))
 (let ((?x3742 (* ?x7410 |v2:15|)))
 (let ((?x8450 (* 0.0 |v13:4|)))
 (let ((?x5229 (+ (+ (+ (+ (* ?x7410 ?x5679) (* 10.0 |v4:13|)) ?x5600) (* ?x286 |v13:4|)) ?x8450)))
 (let (($x7073 (or (<= (+ (+ ?x5229 (* 12.0 |v13:4|)) ?x3742) 3.0) (<= (+ ?x4724 ?x1823) ?x8355))))
 (let (($x693 (and (and (or (and $x7073 $x8992) (or $x6871 $x5872)) (or (and $x3487 $x6787) $x4228)) (and (and (and $x4519 $x5955) (and $x2578 $x1156)) $x7556))))
 (let ((?x8368 (* ?x7122 |v1:16|)))
 (let ((?x3812 (- 15.0)))
 (let ((?x652 (* ?x3812 ?x2701)))
 (let ((?x4312 (+ (+ (+ (+ (* ?x9179 |v5:12|) (* ?x7122 ?x5679)) (* 5.0 |v0:17|)) ?x2501) ?x652)))
 (let ((?x126 (* ?x2540 ?x4856)))
 (let ((?x2173 (* 3.0 ?x3669)))
 (let ((?x8199 (* ?x9179 |v5:12|)))
 (let ((?x7148 (* 11.0 |v2:15|)))
 (let ((?x9563 (+ (+ (+ (+ (* ?x1687 |v4:13|) (* ?x2540 |v15:2|)) (* 4.0 |v13:4|)) ?x7148) ?x8199)))
 (let (($x6610 (and (<= (+ (+ ?x9563 ?x2173) ?x126) ?x6156) (<= (+ (+ ?x4312 (* ?x286 ?x439)) ?x8368) 0.0))))
 (let ((?x6847 (* 5.0 |v1:16|)))
 (let ((?x8129 (* 19.0 |v1:16|)))
 (let ((?x2236 (+ (+ (+ (+ ?x2651 (* ?x286 |v2:15|)) (* ?x9179 |v17:0|)) (* 18.0 ?x5679)) ?x8129)))
 (let ((?x9308 (- 7.0)))
 (let ((?x6810 (* ?x9308 ?x4856)))
 (let ((?x2799 (* 3.0 |v3:14|)))
 (let ((?x8584 (* 9.0 |v16:1|)))
 (let ((?x1258 (+ (+ (+ (* ?x3775 |v14:3|) (* ?x8355 ?x5679)) (* ?x6156 ?x3669)) (* 11.0 ?x5679))))
 (let (($x7005 (and (<= (+ (+ (+ ?x1258 ?x8584) ?x2799) ?x6810) 4.0) (<= (+ (+ ?x2236 ?x6847) ?x3953) 8.0))))
 (let ((?x4001 (* ?x5537 |v17:0|)))
 (let ((?x320 (* 6.0 |v3:14|)))
 (let ((?x8499 (+ (+ (+ (+ (* ?x3312 |v14:3|) (* 19.0 |v15:2|)) ?x5087) (* ?x3312 |v13:4|)) ?x320)))
 (let ((?x2171 (* 2.0 |v4:13|)))
 (let ((?x4011 (* 6.0 ?x2701)))
 (let ((?x6075 (+ (+ (+ (+ (* ?x9179 |v2:15|) (* ?x8355 ?x4856)) (* ?x7410 ?x9214)) ?x3742) ?x4011)))
 (let (($x6054 (or (<= (+ (+ ?x6075 ?x7742) ?x2171) 17.0) (<= (+ (+ ?x8499 ?x6586) ?x4001) ?x286))))
 (let ((?x664 (* ?x3775 |v3:14|)))
 (let ((?x7380 (* ?x3312 |v16:1|)))
 (let ((?x2277 (+ (+ (+ (+ (* 15.0 ?x9214) ?x2056) (* 12.0 |v16:1|)) (* 6.0 ?x4856)) ?x1386)))
 (let ((?x4167 (+ (+ (+ (+ (* ?x7468 ?x439) (* ?x6059 |v12:5|)) (* ?x7122 |v3:14|)) ?x1457) ?x6822)))
 (let (($x3254 (or (<= (+ (+ ?x4167 ?x2701) (* ?x7468 |v12:5|)) ?x7122) (<= (+ (+ ?x2277 ?x7380) ?x664) 15.0))))
 (let ((?x9885 (* ?x7468 ?x4856)))
 (let ((?x4062 (* ?x4592 |v17:0|)))
 (let ((?x4911 (+ (+ (+ (+ (+ (* ?x1687 |v1:16|) ?x2054) ?x7722) (* 12.0 ?x5679)) ?x6513) ?x4062)))
 (let ((?x4783 (* 16.0 ?x2701)))
 (let ((?x5595 (* 0.0 |v5:12|)))
 (let ((?x6745 (+ (+ (+ (+ (* 14.0 |v12:5|) (* ?x5187 ?x9214)) (* ?x6059 |v12:5|)) ?x5595) ?x4401)))
 (let ((?x5181 (* 4.0 |v1:16|)))
 (let ((?x8104 (+ (+ (+ (+ (* ?x4592 ?x2701) ?x7488) (* ?x7468 |v0:17|)) (* ?x7410 |v3:14|)) ?x5181)))
 (let (($x6218 (and (<= (+ (+ ?x8104 ?x1839) ?x8046) 0.0) (<= (+ (+ ?x6745 ?x4783) ?x5630) 10.0))))
 (let ((?x6742 (* 14.0 |v4:13|)))
 (let ((?x1569 (* ?x286 |v13:4|)))
 (let ((?x1143 (* ?x7410 |v5:12|)))
 (let ((?x2096 (+ (+ (+ (+ (+ |v14:3| (* 12.0 |v14:3|)) (* 19.0 |v0:17|)) ?x2173) ?x1143) ?x1569)))
 (let ((?x610 (+ (+ (+ (* ?x6156 |v15:2|) (* ?x5187 |v5:12|)) (* ?x1687 |v14:3|)) (* 13.0 |v17:0|))))
 (let (($x2004 (and (<= (+ (+ (+ ?x610 (* 16.0 ?x3669)) ?x7742) (* 12.0 ?x2701)) ?x3312) (<= (+ ?x2096 ?x6742) 11.0))))
 (let ((?x5699 (* 19.0 |v13:4|)))
 (let ((?x5133 (* 0.0 |v2:15|)))
 (let ((?x1244 (+ (+ (+ (+ ?x8129 (* 3.0 |v2:15|)) (* 6.0 |v5:12|)) ?x9016) ?x5133)))
 (let ((?x2972 (* 10.0 ?x2701)))
 (let ((?x9567 (* 8.0 ?x2701)))
 (let ((?x6420 (+ (+ (+ (+ (* 11.0 |v17:0|) (* ?x3237 ?x439)) (* 16.0 |v3:14|)) ?x9567) (* ?x4592 |v15:2|))))
 (let (($x7106 (or (<= (+ (+ ?x6420 ?x8294) ?x2972) ?x4592) (<= (+ (+ ?x1244 (* ?x8355 |v12:5|)) ?x5699) ?x2540))))
 (let (($x2734 (and (or (and $x7106 $x2004) (or $x6218 (<= (+ ?x4911 ?x9885) 15.0))) (and (or $x3254 $x6054) (or $x7005 $x6610)))))
 (let ((?x5924 (* ?x1687 |v1:16|)))
 (let ((?x6137 (* ?x8355 |v0:17|)))
 (let ((?x67 (* ?x3775 |v12:5|)))
 (let ((?x134 (+ (+ (+ (+ (* ?x3812 |v14:3|) (* ?x2540 |v15:2|)) (* 9.0 |v4:13|)) ?x67) ?x7148)))
 (let ((?x5951 (* ?x7468 |v15:2|)))
 (let ((?x1038 (* ?x3812 |v2:15|)))
 (let ((?x8350 (* ?x7468 ?x9214)))
 (let ((?x5762 (+ (+ (+ (+ (* ?x286 |v3:14|) (* ?x2540 |v13:4|)) (* ?x8355 ?x5679)) ?x8350) ?x1038)))
 (let ((?x3868 (* 10.0 |v2:15|)))
 (let ((?x6261 (+ (+ (+ (+ (+ (* 13.0 |v12:5|) ?x6137) ?x4314) (* ?x2540 |v16:1|)) ?x3868) ?x8350)))
 (let (($x1873 (or (<= (+ ?x6261 (* 2.0 |v12:5|)) ?x7410) (<= (+ (+ ?x5762 (* ?x6156 ?x5679)) ?x5951) ?x1687))))
 (let ((?x1704 (* ?x1687 |v4:13|)))
 (let ((?x2883 (* 10.0 |v0:17|)))
 (let ((?x714 (+ (+ (+ (+ (* ?x1687 |v15:2|) |v13:4|) (* ?x3237 ?x4856)) (* 5.0 |v17:0|)) ?x126)))
 (let ((?x1514 (* ?x3312 |v3:14|)))
 (let ((?x4544 (* 18.0 |v4:13|)))
 (let ((?x3744 (* ?x1687 |v0:17|)))
 (let ((?x2555 (+ (+ (+ (+ (* ?x286 |v14:3|) (* ?x3775 |v13:4|)) (* 14.0 ?x2701)) ?x3744) ?x4544)))
 (let (($x2834 (or (<= (+ (+ ?x2555 ?x1514) (* 19.0 ?x9214)) 10.0) (<= (+ (+ ?x714 ?x2883) ?x1704) ?x7925))))
 (let ((?x9373 (* 17.0 |v17:0|)))
 (let ((?x7681 (+ (+ (+ (+ (+ ?x5951 (* ?x2540 |v15:2|)) ?x7380) ?x1457) (* 6.0 |v13:4|)) ?x9373)))
 (let ((?x7193 (* 19.0 |v4:13|)))
 (let ((?x4460 (* ?x4592 |v5:12|)))
 (let ((?x6713 (* 16.0 |v14:3|)))
 (let ((?x5292 (+ (+ (+ (+ (* ?x3237 |v3:14|) (* 18.0 ?x2701)) (* ?x1687 ?x439)) ?x6713) ?x4460)))
 (let (($x1127 (and (<= (+ (+ ?x5292 ?x7193) |v0:17|) ?x7468) (<= (+ ?x7681 (* ?x9566 ?x9214)) ?x5537))))
 (let ((?x1788 (* 16.0 |v3:14|)))
 (let ((?x71 (+ (+ (+ (+ (+ (* ?x3237 ?x5679) (* ?x9179 |v14:3|)) ?x6810) ?x8450) ?x3025) ?x1788)))
 (let (($x7298 (and (or (or (<= (+ ?x71 ?x1823) ?x8355) $x1127) (or $x2834 $x1873)) (<= (+ (+ ?x134 ?x6137) ?x5924) 16.0))))
 (let ((?x6177 (* 17.0 ?x3669)))
 (let ((?x2557 (+ (+ (+ (+ (+ ?x5181 (* ?x8355 ?x3669)) ?x4030) (* 17.0 ?x2701)) ?x1000) |v1:16|)))
 (let ((?x1313 (* 3.0 ?x9214)))
 (let ((?x2956 (* 4.0 ?x439)))
 (let ((?x8636 (* 13.0 |v0:17|)))
 (let ((?x6761 (* 14.0 |v16:1|)))
 (let ((?x336 (+ (+ (+ (+ (* ?x2540 ?x3669) (* 0.0 |v12:5|)) (* 6.0 ?x5679)) ?x6761) ?x8636)))
 (let ((?x2108 (* 18.0 |v15:2|)))
 (let ((?x6173 (+ (+ (+ (+ (+ (* ?x286 |v1:16|) ?x4544) ?x5679) ?x4277) (* ?x5537 |v5:12|)) ?x6177)))
 (let ((?x8058 (* 12.0 |v2:15|)))
 (let ((?x6952 (+ (+ (+ (+ (+ (+ ?x3033 ?x5630) (* 14.0 ?x2701)) |v1:16|) ?x664) ?x8058) (* 9.0 ?x4856))))
 (let ((?x916 (* 11.0 |v5:12|)))
 (let ((?x9405 (+ (+ (+ (+ (+ ?x1143 |v3:14|) (* 2.0 |v1:16|)) (* 20.0 |v13:4|)) ?x6121) ?x916)))
 (let (($x2709 (or (or (<= (+ ?x9405 ?x8129) 9.0) (<= ?x6952 10.0)) (and (<= (+ ?x6173 ?x2108) 13.0) (<= (+ (+ ?x336 ?x2956) ?x1313) 15.0)))))
 (let ((?x7586 (* 20.0 ?x4856)))
 (let ((?x3417 (* ?x9566 |v4:13|)))
 (let ((?x1980 (+ (+ (+ (+ (* ?x9179 |v13:4|) (* 12.0 |v14:3|)) (* 16.0 |v13:4|)) ?x3417) ?x8587)))
 (let ((?x2567 (* 8.0 ?x9214)))
 (let ((?x147 (* 15.0 |v0:17|)))
 (let ((?x75 (+ (+ (+ (+ (+ ?x2883 ?x4324) (* ?x7122 ?x4856)) (* ?x9179 ?x439)) ?x147) ?x2567)))
 (let ((?x7642 (+ (+ (+ (+ (+ ?x318 (* 5.0 |v17:0|)) (* 5.0 |v17:0|)) ?x2203) ?x789) (* ?x9179 ?x4856))))
 (let (($x5612 (or (or (<= (+ ?x7642 (* ?x5187 |v13:4|)) 8.0) (<= (+ ?x75 ?x4001) 3.0)) (<= (+ (+ ?x1980 (* 11.0 |v12:5|)) ?x7586) ?x4592))))
 (let ((?x3699 (* 15.0 |v17:0|)))
 (let ((?x9287 (* ?x3812 |v14:3|)))
 (let ((?x1802 (+ (+ (+ (+ (* ?x3237 |v13:4|) (* ?x9566 |v13:4|)) (* 5.0 ?x2701)) ?x9287) ?x3699)))
 (let ((?x5866 (* 17.0 ?x5679)))
 (let ((?x5169 (* ?x286 |v5:12|)))
 (let ((?x3515 (+ (+ (+ (+ (* ?x9566 |v15:2|) (* ?x3312 ?x2701)) |v1:16|) (* ?x286 |v1:16|)) ?x5169)))
 (let (($x7476 (and (<= (+ (+ ?x3515 (* ?x9308 ?x9214)) ?x5866) 14.0) (<= (+ (+ ?x1802 (* 14.0 |v14:3|)) (* ?x5537 ?x3669)) 10.0))))
 (let ((?x2377 (* 18.0 |v5:12|)))
 (let ((?x4974 (+ (+ (+ (+ (* 14.0 |v1:16|) (* 9.0 |v5:12|)) ?x4231) (* 15.0 ?x9214)) ?x2377)))
 (let ((?x7568 (+ (+ (+ (+ (* 6.0 |v12:5|) (* ?x7122 |v15:2|)) ?x7553) (* 12.0 |v12:5|)) ?x6810)))
 (let (($x3603 (and (<= (+ (+ ?x7568 ?x3744) (* ?x4592 ?x439)) ?x8355) (<= (+ (+ ?x4974 ?x800) ?x5563) 8.0))))
 (let ((?x6303 (* ?x6156 ?x4856)))
 (let ((?x7442 (* 10.0 |v14:3|)))
 (let ((?x4436 (+ (+ (+ (+ (+ ?x9373 (* 6.0 |v15:2|)) (* 3.0 |v13:4|)) ?x2972) ?x7442) ?x2054)))
 (let ((?x6512 (+ (+ (+ (+ (* 13.0 ?x2701) (* ?x7925 |v13:4|)) ?x3385) (* ?x3775 |v14:3|)) ?x8960)))
 (let ((?x9507 (* ?x9566 |v3:14|)))
 (let ((?x7172 (* 5.0 |v0:17|)))
 (let ((?x5032 (* 10.0 |v4:13|)))
 (let ((?x6976 (+ (+ (+ (+ (* ?x6156 ?x439) (* ?x3237 |v13:4|)) (* 12.0 |v14:3|)) ?x5032) ?x8450)))
 (let (($x2476 (and (<= (+ (+ ?x6976 ?x7172) ?x9507) 7.0) (<= (+ (+ ?x6512 ?x4231) ?x4795) 12.0))))
 (let (($x7694 (or (and (and $x2476 (<= (+ ?x4436 ?x6303) 11.0)) (and $x3603 $x7476)) (and $x5612 $x2709))))
 (let (($x5626 (or (and (or $x7694 (<= (+ ?x2557 ?x6177) 14.0)) (and $x7298 $x2734)) (and $x693 $x4588))))
 (let (($x4184 (not (= |v6:11_st| (RMk1 val!10409)))))
 (let (($x3947 (not (= |v7:10_st| (RMk1 val!10408)))))
 (let (($x3746 (not (= |v8:9_st| (RMk1 val!10407)))))
 (let (($x3505 (not (= |v9:8_st| (RMk1 val!10406)))))
 (let (($x1202 (not (= |v10:7_st| (RMk1 val!10405)))))
 (let (($x2351 (not (= |v11:6_st| (RMk1 val!10404)))))
 (and $x2351 $x1202 $x3505 $x3746 $x3947 $x4184 $x5626)))))))))))))))))))))))))))))))))))))))))))))))))))))))))))))))))))))))))))))))))))))))))))))))))))))))))))))))))))))))))))))))))))))))))))))))))))))))))))))))))))))))))))))))))))))))))))))))))))))))))))))))))))))))))))))))))))))))))))))))))))))))))))))))))))))))))))))))))))))))))))))))))))))))))))))))))))))))))))))))))))
 )
 )
 )
 )
 )
 )
 )
 )
 )
 )
 )
 )
 )
 )
 )
 )
 )
 )
(check-sat)
